c b=4,c=577
p cnf 18 44
4 -8 0
1 4 -14 0
4 -17 0
-4 8 0
1 -4 14 0
1 -4 17 0
3 -7 0
3 -13 0
1 3 -16 0
-3 7 0
-3 13 0
1 -3 16 0
2 -6 0
2 -12 0
1 2 -15 0
-2 6 0
-2 12 0
1 -2 15 0
1 -5 0
1 -11 0
1 -18 0
-1 4 14 0
2 4 -15 0
-1 -4 -14 0
-1 2 -4 15 0
2 -4 17 0
2 3 -16 0
2 -3 16 0
2 -18 0
-2 4 15 0
3 4 -16 0
-1 -2 -4 -15 0
-1 -2 3 -4 16 0
3 -4 17 0
3 -18 0
-3 4 16 0
4 -18 0
-1 -2 -3 -4 -16 0
-1 -2 -3 -4 18 0
-1 -2 -3 -17 0
-1 5 0
-1 11 0
-9 0
-10 0
